certificates/rado_a9_c118_N16.cnf
c Rad2 upper bound instance: x1 + 9*x2 - x3 = 118, interval [1,16]
p cnf 16 56
1 9 14 0
-1 -9 -14 0
1 2 13 0
-1 -2 -13 0
2 10 14 0
-2 -10 -14 0
2 3 13 0
-2 -3 -13 0
3 11 14 0
-3 -11 -14 0
3 4 13 0
-3 -4 -13 0
4 12 14 0
-4 -12 -14 0
4 5 13 0
-4 -5 -13 0
5 13 14 0
-5 -13 -14 0
5 6 13 0
-5 -6 -13 0
6 14 0
-6 -14 0
6 7 13 0
-6 -7 -13 0
7 14 15 0
-7 -14 -15 0
7 8 13 0
-7 -8 -13 0
8 14 16 0
-8 -14 -16 0
8 9 13 0
-8 -9 -13 0
9 10 13 0
-9 -10 -13 0
1 11 12 0
-1 -11 -12 0
10 11 13 0
-10 -11 -13 0
2 12 0
-2 -12 0
11 12 13 0
-11 -12 -13 0
3 12 13 0
-3 -12 -13 0
12 13 0
-12 -13 0
13 14 0
-13 -14 0
5 12 15 0
-5 -12 -15 0
13 14 15 0
-13 -14 -15 0
6 12 16 0
-6 -12 -16 0
13 15 16 0
-13 -15 -16 0
