certificates/rado_a9_c118_N16.drat
-15 -16 0
d -13 -15 -16 0
-14 -16 0
d -8 -14 -16 0
-16 0
14 0
-6 0
-13 0
5 0
7 0
12 0
15 0
0
